problems/csplib-prob065/opd-models/noch/O0/minion/model_2-small_bibd_13_26_06-solution000001.solution
language Essence 1.3

letting lambda be 2
letting opd be
        {{1, 2, 3, 4, 5, 6}, {1, 2, 7, 8, 9, 10}, {1, 2, 11, 12, 13, 14}, {1, 2, 15, 16, 17, 18},
         {1, 2, 19, 20, 21, 22}, {1, 2, 23, 24, 25, 26}, {1, 3, 7, 11, 15, 19}, {1, 3, 8, 12, 16, 20},
         {1, 3, 9, 13, 17, 21}, {1, 3, 10, 14, 18, 22}, {1, 4, 7, 12, 17, 22}, {1, 4, 8, 11, 18, 21},
         {1, 4, 9, 14, 15, 20}}
$ Visualisation for opd
$  1  2  3  4  5  6
$  1  2  7  8  9 10
$  1  2 11 12 13 14
$  1  2 15 16 17 18
$  1  2 19 20 21 22
$  1  2 23 24 25 26
$  1  3  7 11 15 19
$  1  3  8 12 16 20
$  1  3  9 13 17 21
$  1  3 10 14 18 22
$  1  4  7 12 17 22
$  1  4  8 11 18 21
$  1  4  9 14 15 20

